c generated by sgen3tocnf
c nLits = 636
c actual nVars = 101
c Command: sgen3tocnf 025 0 24 25 101 4 2 0 /dev/null
p cnf 101 212
-29 -53 -61 0
-29 -53 -65 0
-29 -61 -65 0
-53 -61 -65 0
-13 -21 -37 0
-13 -21 -45 0
-13 -37 -45 0
-21 -37 -45 0
-9 -22 -57 0
-9 -22 -77 0
-9 -57 -77 0
-22 -57 -77 0
-14 -66 -69 0
-14 -66 -93 0
-14 -69 -93 0
-66 -69 -93 0
-1 -62 -89 0
-1 -62 -94 0
-1 -89 -94 0
-62 -89 -94 0
-17 -25 -46 0
-17 -25 -90 0
-17 -46 -90 0
-25 -46 -90 0
-10 -33 -38 0
-10 -33 -97 0
-10 -38 -97 0
-33 -38 -97 0
-11 -26 -63 0
-11 -26 -70 0
-11 -63 -70 0
-26 -63 -70 0
-15 -18 -34 0
-15 -18 -78 0
-15 -34 -78 0
-18 -34 -78 0
-39 -49 -67 0
-39 -49 -73 0
-39 -67 -73 0
-49 -67 -73 0
-5 -16 -41 0
-5 -16 -85 0
-5 -41 -85 0
-16 -41 -85 0
-30 -50 -86 0
-30 -50 -91 0
-30 -86 -91 0
-50 -86 -91 0
-6 -23 -95 0
-6 -23 -98 0
-6 -95 -98 0
-23 -95 -98 0
-47 -58 -87 0
-47 -58 -96 0
-47 -87 -96 0
-58 -87 -96 0
-2 -24 -31 0
-2 -24 -81 0
-2 -31 -81 0
-24 -31 -81 0
-27 -35 -68 0
-27 -35 -88 0
-27 -68 -88 0
-35 -68 -88 0
-7 -32 -74 0
-7 -32 -79 0
-7 -74 -79 0
-32 -74 -79 0
-59 -71 -75 0
-59 -71 -82 0
-59 -75 -82 0
-71 -75 -82 0
-19 -64 -83 0
-19 -64 -99 0
-19 -83 -99 0
-64 -83 -99 0
-3 -42 -48 0
-3 -42 -51 0
-3 -48 -51 0
-42 -48 -51 0
-4 -54 -76 0
-4 -54 -100 0
-4 -76 -100 0
-54 -76 -100 0
-8 -28 -40 0
-8 -28 -60 0
-8 -40 -60 0
-28 -40 -60 0
-43 -72 -80 0
-43 -72 -92 0
-43 -80 -92 0
-72 -80 -92 0
-36 -44 -55 0
-36 -44 -84 0
-36 -55 -84 0
-44 -55 -84 0
-12 -20 -52 0
-12 -20 -56 0
-12 -20 -101 0
-12 -52 -56 0
-12 -52 -101 0
-12 -56 -101 0
-20 -52 -56 0
-20 -52 -101 0
-20 -56 -101 0
-52 -56 -101 0
1 2 3 0
1 2 4 0
1 3 4 0
2 3 4 0
5 6 7 0
5 6 8 0
5 7 8 0
6 7 8 0
9 10 11 0
9 10 12 0
9 11 12 0
10 11 12 0
13 14 15 0
13 14 16 0
13 15 16 0
14 15 16 0
17 18 19 0
17 18 20 0
17 19 20 0
18 19 20 0
21 22 23 0
21 22 24 0
21 23 24 0
22 23 24 0
25 26 27 0
25 26 28 0
25 27 28 0
26 27 28 0
29 30 31 0
29 30 32 0
29 31 32 0
30 31 32 0
33 34 35 0
33 34 36 0
33 35 36 0
34 35 36 0
37 38 39 0
37 38 40 0
37 39 40 0
38 39 40 0
41 42 43 0
41 42 44 0
41 43 44 0
42 43 44 0
45 46 47 0
45 46 48 0
45 47 48 0
46 47 48 0
49 50 51 0
49 50 52 0
49 51 52 0
50 51 52 0
53 54 55 0
53 54 56 0
53 55 56 0
54 55 56 0
57 58 59 0
57 58 60 0
57 59 60 0
58 59 60 0
61 62 63 0
61 62 64 0
61 63 64 0
62 63 64 0
65 66 67 0
65 66 68 0
65 67 68 0
66 67 68 0
69 70 71 0
69 70 72 0
69 71 72 0
70 71 72 0
73 74 75 0
73 74 76 0
73 75 76 0
74 75 76 0
77 78 79 0
77 78 80 0
77 79 80 0
78 79 80 0
81 82 83 0
81 82 84 0
81 83 84 0
82 83 84 0
85 86 87 0
85 86 88 0
85 87 88 0
86 87 88 0
89 90 91 0
89 90 92 0
89 91 92 0
90 91 92 0
93 94 95 0
93 94 96 0
93 94 101 0
93 95 96 0
93 95 101 0
93 96 101 0
94 95 96 0
94 95 101 0
94 96 101 0
95 96 101 0
97 98 99 0
97 98 100 0
97 99 100 0
98 99 100 0
